solution status: optimal solution found
objective value:                                    0
shell_j_bank.thing.devices[0].thingy.vbead_in                    1 	(obj:0)
shell_i_bank.thing.devices[0].thingy.vwaste                    1 	(obj:0)
shell_j_bank.thing.devices[0].thingy.vcell_in                    1 	(obj:0)
shell_j_bank.thing.devices[0].thingy.vlysis_out                    1 	(obj:0)
shell_i_bank.thing.devices[0].thingy.vcell_out                    1 	(obj:0)
shell_i_bank.thing.devices[0].thingy.vcollect                    1 	(obj:0)
shell_j_bank.thing.devices[0].thingy.vpush                    1 	(obj:0)
shell_j_bank.thing.devices[0].thingy.vbead_out                    1 	(obj:0)
shell_j_bank.thing.devices[0].thingy.vlysis_in                    1 	(obj:0)
bank.thing.devices[0].thingy.vwaste_y                    6 	(obj:0)
bank.thing.devices[0].thingy.vwaste_z                   25 	(obj:0)
bank.thing.devices[0].thingy.vcell_out_x                    7 	(obj:0)
bank.thing.devices[0].thingy.vcell_out_y                    5 	(obj:0)
bank.thing.devices[0].thingy.vcell_out_z                   25 	(obj:0)
bank.thing.devices[0].thingy.vbead_in_z                   24 	(obj:0)
bank.thing.devices[0].thingy.vbead_in_x                    7 	(obj:0)
bank.thing.devices[0].thingy.vcollect_x                    7 	(obj:0)
bank.thing.devices[0].thingy.vcollect_y                    3 	(obj:0)
bank.thing.devices[0].thingy.vcollect_z                   25 	(obj:0)
bank.thing.devices[0].thingy.vcell_in_x                    3 	(obj:0)
bank.thing.devices[0].thingy.vcell_in_y                    7 	(obj:0)
bank.thing.devices[0].thingy.vpush_x                    4 	(obj:0)
bank.thing.devices[0].thingy.vpush_y                    7 	(obj:0)
bank.thing.devices[0].thingy.vpush_z                   25 	(obj:0)
bank.thing.devices[0].thingy.vcell_in_z                   25 	(obj:0)
bank.thing.devices[0].thingy.vbead_in_y                    7 	(obj:0)
bank.thing.devices[0].thingy.vbead_out_x                    5 	(obj:0)
bank.thing.devices[0].thingy.vbead_out_y                    7 	(obj:0)
bank.thing.devices[0].thingy.vbead_out_z                   25 	(obj:0)
bank.thing.devices[0].thingy.vwaste_x                    7 	(obj:0)
bank.thing.devices[0].thingy.vlysis_out_x                    6 	(obj:0)
bank.thing.devices[0].thingy.vlysis_in_x                    7 	(obj:0)
bank.thing.devices[0].thingy.vlysis_in_y                    7 	(obj:0)
bank.thing.devices[0].thingy.vlysis_in_z                   25 	(obj:0)
bank.thing.devices[0].thingy.vlysis_out_y                    7 	(obj:0)
bank.thing.devices[0].thingy.vlysis_out_z                   25 	(obj:0)
